
(set-logic ALL) 

(declare-datatype MyList ((Nil) (Cons (head Real) (tail MyList)) )) 
(declare-fun l0 () MyList) 
(declare-fun l1 () MyList) 
(declare-fun l2 () MyList) 
(declare-fun l3 () MyList) 
(declare-fun i0 () Real) 
(declare-fun i1 () Real) 
(assert (is-Nil Nil) )
(assert (not (is-Cons Nil)) )
(assert (or (is-Cons Nil) (= l1 l1)) )
(assert (or (= l0 l2) (= l2 Nil) (= l0 Nil) (is-Cons Nil)) )
(assert (or (= l0 l3) (= l0 Nil) (is-Nil l1)) )
(assert (is-Nil Nil) )
(assert (= l3 l3) )
(assert (not (= l0 Nil)) )
(check-sat)
